26273
0 0 1 1 1 1 0 0 1 0 1 1 1 0 0 0 1 0 0 1 0 0 0 0 1 1 0 1 1 1 
27 19 2 27 2 12 2 27 27 28 4 28 10 3 28 11 3 10 27 27 27 16 5 24 10 27 27 19 29 2 19 19 4 16 27 12 8 8 24 16 25 8 12 4 8 19 3 2 19 10 24 16 24 16 8 12 11 8 27 25 29 2 25 8 3 11 5 19 28 25 25 12 19 8 5 10 10 5 8 16 10 5 8 25 29 10 19 5 27 25 28 19 25 25 2 3 11 12 2 28 28 16 25 25 4 24 4 24 27 3 19 4 27 12 12 8 28 25 28 8 8 11 28 19 4 16 2 11 19 28 28 24 25 10 5 8 3 3 28 10 12 27 11 11 25 5 24 16 27 25 24 28 10 28 8 11 2 16 3 3 3 27 10 24 5 27 5 4 3 2 5 8 19 10 4 2 24 10 29 10 5 16 2 19 12 8 28 10 27 2 2 2 19 4 25 12 25 2 10 19 

Total Run Time: 361700 ms.
